%nproc=16
%mem=2000MB
%chk=BDT-3FT_opt.chk

# opt freq  wb97xd   6-31g(d,p)

BDT-3FT_opt optimization

0 1
  C     1.230000    -1.050000     0.130000
  C     2.630000    -0.850000     0.070000
  C     0.360000     0.050000     0.070000
  C     0.940000     1.310000    -0.040000
  C     2.340000     1.500000    -0.100000
  C     3.200000     0.410000    -0.050000
  H     4.270000     0.540000    -0.110000
  C     0.900000    -2.450000     0.280000
  C     1.990000    -3.250000     0.310000
  S     3.490000    -2.370000     0.170000
  H    -0.110000    -2.830000     0.370000
  H     2.020000    -4.320000     0.420000
  S     0.090000     2.840000    -0.150000
  C     1.600000     3.700000    -0.280000
  C     2.690000     2.900000    -0.240000
  H     3.700000     3.260000    -0.300000
  H     1.580000     4.780000    -0.370000
  C    -1.110000    -0.100000     0.130000
  S    -1.970000    -1.010000    -1.090000
  C    -1.970000     0.440000     1.030000
  C    -3.320000     0.110000     0.740000
  H    -1.670000     1.040000     1.880000
  C    -3.510000    -0.660000    -0.360000
  F    -4.330000     0.540000     1.510000
  C    -4.810000    -1.170000    -0.910000
  H    -5.620000    -0.820000    -0.280000
  H    -4.840000    -2.260000    -0.940000
  H    -4.980000    -0.800000    -1.930000

