%nproc=16
%mem=2000MB
%chk=BDT-3FT_scan.chk

# opt=modredundant  wb97xd   6-31g(d,p)

BDT-3FT_scan optimization

0 1
  C    -1.227590    -1.055062    -0.133688
  C    -2.630597    -0.853990    -0.065042
  C    -0.356936     0.047304    -0.074748
  C    -0.938884     1.311246     0.036505
  C    -2.342311     1.504864     0.102205
  C    -3.198278     0.405164     0.053437
  H    -4.273547     0.539378     0.108345
  C    -0.900189    -2.453192    -0.283044
  C    -1.992434    -3.246648    -0.310490
  S    -3.492096    -2.373952    -0.165260
  H     0.111776    -2.826142    -0.371044
  H    -2.015337    -4.322524    -0.415148
  S    -0.089307     2.839418     0.148320
  C    -1.598744     3.700590     0.275085
  C    -2.684601     2.899643     0.236890
  H    -3.703683     3.260721     0.301813
  H    -1.582650     4.777797     0.368787
  C     1.108406    -0.104234    -0.127860
  S     1.974141    -1.006011     1.086063
  C     1.970068     0.441211    -1.034997
  C     3.320358     0.110637    -0.740454
  H     1.664893     1.041930    -1.881858
  C     3.512707    -0.664085     0.361423
  F     4.330730     0.534793    -1.511943
  C     4.807449    -1.168641     0.912567
  H     5.625179    -0.818273     0.279820
  H     4.838886    -2.262076     0.935127
  H     4.983551    -0.804076     1.928965

D 4 3 18 19 s 35 10.0000

