%nproc=16
%mem=2000MB
%chk=BDT-TIO_opt.chk

# opt freq  pm6   

BDT-TIO_opt optimization

0 1
  C    -0.290000     2.290000     0.000000
  C    -1.620000     2.670000     0.000000
  C    -2.680000     1.730000     0.000000
  C    -2.390000     0.360000     0.000000
  C    -1.060000    -0.020000     0.000000
  H    -3.190000    -0.370000     0.000000
  C     0.000000     0.920000     0.000000
  H     0.510000     3.020000     0.000000
  C    -3.970000     2.380000     0.000000
  C    -3.880000     3.720000     0.000000
  H    -4.910000     1.840000     0.000000
  C     1.290000     0.280000     0.000000
  C     1.220000    -1.080000     0.000000
  H     2.220000     0.830000     0.000000
  S    -2.240000     4.310000     0.000000
  H    -4.700000     4.430000     0.000000
  S    -0.440000    -1.660000     0.000000
  C     2.340000    -2.010000     0.000000
  C     3.680000    -1.710000     0.000000
  C     4.510000    -2.860000     0.000000
  H     4.050000    -0.690000     0.000000
  C     3.800000    -4.020000     0.000000
  H     5.590000    -2.820000     0.000000
  S     2.100000    -3.730000     0.000000
  H     4.170000    -5.040000     0.000000

