%nproc=16
%mem=2000MB
%chk=BDT-TIO_scan.chk

# opt=modredundant  pm6   

BDT-TIO_scan optimization

0 1
  C    -0.288329     2.289843     0.000000
  C    -1.621538     2.673373     0.000000
  C    -2.681618     1.729774     0.000000
  C    -2.392723     0.363213     0.000000
  C    -1.060833    -0.018551     0.000000
  H    -3.193070    -0.369562     0.000000
  C    -0.000000     0.923541     0.000000
  H     0.512691     3.021869     0.000000
  C    -3.971355     2.376017     0.000000
  C    -3.882062     3.723639     0.000000
  H    -4.910105     1.835871     0.000000
  C     1.285393     0.281467     0.000000
  C     1.217648    -1.076156     0.000000
  H     2.218631     0.831553     0.000000
  S    -2.240974     4.311796     0.000000
  H    -4.696624     4.434495     0.000000
  S    -0.443886    -1.655714     0.000000
  C     2.336487    -2.009456     0.000000
  C     3.675650    -1.707801     0.000000
  C     4.509699    -2.858101     0.000000
  H     4.052724    -0.692748     0.000000
  C     3.799519    -4.022119     0.000000
  H     5.591848    -2.819042     0.000000
  S     2.103286    -3.732275     0.000000
  H     4.173441    -5.035442     0.000000

D 12 13 18 24 s 23 15.0000

