%nproc=16
%mem=2000MB
%chk=CFBN_scan.chk

# opt=modredundant  wb97xd   6-31g(d,p)

CFBN_scan optimization

0 1
  C    -1.197034     0.349643    -0.370477
  C     0.103176     0.526696     0.445010
  F    -2.006834     1.441517    -0.113272
 Cl    -2.066285    -1.137548     0.108128
  H    -0.998884     0.302808    -1.452101
  H    -0.105416     0.407853     1.520014
  C     0.700371     1.828503     0.168882
 Br     1.385416    -0.879078    -0.058218
  N     1.166287     2.884666    -0.044214

D 4 1 2 7 s 35 10.0000

