%nproc=16
%mem=2000MB
%chk=ATP_scan.chk

# opt=modredundant  pm6   

ATP_scan optimization

0 1
  O    -1.272216    -0.614412    -1.341458
  O    -2.535653    -1.473797     1.497728
  O    -3.405147     1.006132     1.036426
  N     0.658862    -1.135257    -0.111674
  N     2.826203    -1.797182    -0.398987
  N     1.054212     1.238133     0.398334
  N     3.419020     1.803424     0.388828
  C    -1.516918    -0.585512     1.051527
  C    -2.146098     0.683314     0.424449
  C    -0.795232    -1.240810    -0.149320
  C    -2.378867     0.265459    -1.035225
  C    -2.396809     1.405520    -2.036930
  C     1.439267    -0.006105     0.088680
  C     1.556234    -2.156592    -0.409888
  C     2.782752    -0.442596    -0.087763
  C     3.768154     0.538398     0.081071
  C     2.103016     2.078777     0.528913
  H    -0.809831    -0.354233     1.871066
  H    -1.432989     1.522750     0.478106
  H    -1.026784    -2.321507    -0.159375
  H    -3.327890    -0.308644    -1.084280
  H    -3.320475    -0.899451     1.672976
  H    -3.245248     1.659804     1.746182
  H     1.190918    -3.162624    -0.625321
  H     1.855562     3.116278     0.780523
  H    -1.449477     1.969911    -1.994152
  H    -3.233603     2.086651    -1.804545
  H    -2.534391     1.024996    -3.062349
  H     4.837249     0.319756    -0.028996

D 13 4 10 1 s 35 10.0000

