%nproc=16
%mem=2000MB
%chk=ATP_opt.chk

# opt freq  pm6   

ATP_opt optimization

0 1
  O    -1.270000    -0.610000    -1.340000
  O    -2.540000    -1.470000     1.500000
  O    -3.410000     1.010000     1.040000
  N     0.660000    -1.140000    -0.110000
  N     2.830000    -1.800000    -0.400000
  N     1.050000     1.240000     0.400000
  N     3.420000     1.800000     0.390000
  C    -1.520000    -0.590000     1.050000
  C    -2.150000     0.680000     0.420000
  C    -0.800000    -1.240000    -0.150000
  C    -2.380000     0.270000    -1.040000
  C    -2.400000     1.410000    -2.040000
  C     1.440000    -0.010000     0.090000
  C     1.560000    -2.160000    -0.410000
  C     2.780000    -0.440000    -0.090000
  C     3.770000     0.540000     0.080000
  C     2.100000     2.080000     0.530000
  H    -0.810000    -0.350000     1.870000
  H    -1.430000     1.520000     0.480000
  H    -1.030000    -2.320000    -0.160000
  H    -3.330000    -0.310000    -1.080000
  H    -3.320000    -0.900000     1.670000
  H    -3.250000     1.660000     1.750000
  H     1.190000    -3.160000    -0.630000
  H     1.860000     3.120000     0.780000
  H    -1.450000     1.970000    -1.990000
  H    -3.230000     2.090000    -1.800000
  H    -2.530000     1.020000    -3.060000
  H     4.840000     0.320000    -0.030000

